Total weight: 1200.5
Route 1: 0 27 6 96 93 59 0 
Route 2: 0 28 76 33 79 29 24 68 3 77 0 
Route 3: 0 52 7 62 11 63 90 10 31 0 
Route 4: 0 41 22 74 72 21 58 0 
Route 5: 0 69 30 78 34 81 51 50 1 0 
Route 6: 0 2 57 15 43 87 97 95 94 13 0 
Route 7: 0 47 36 46 8 83 18 0 
Route 8: 0 92 98 85 91 16 61 84 17 5 60 89 0 
Route 9: 0 53 40 73 75 56 4 80 12 0 
Route 10: 0 35 65 71 9 66 20 32 70 0 
Route 11: 0 99 37 100 14 38 86 44 42 0 
Route 12: 0 88 64 49 19 48 82 45 0 
Route 13: 0 26 39 23 67 55 25 54 0 
